(declare-fun C1 () Real)
(declare-fun C2 () Real)
(declare-fun C3 () Real)
(declare-fun C4 () Real)
(declare-fun C5 () Real)
(declare-fun C6 () Real)
(declare-fun C7 () Real)
(declare-fun C8 () Real)
(declare-fun C9 () Real)
(declare-fun C10 () Real)
(declare-fun y () Real)
(assert ( and ( or  (<=  (+  (* 2 C1)  (* 1 C2)  (* 1 C3)  (* 1 C4)  (* 1 C5)  (* 1 C6)  (* 1 C7)  (* 1 C8)  (* 1 C9)  (* 1 C10) ) 1200 )  (<=  (+  (* 3 C1)  (* 1 C2)  (* 1 C3)  (* 1 C4)  (* 1 C5)  (* 1 C6)  (* 1 C7)  (* 1 C8)  (* 1 C9)  (* 1 C10) ) 1246 )  (<=  (+  (* 3 C1)  (* 2 C2)  (* 1 C3)  (* 1 C4)  (* 1 C5)  (* 1 C6)  (* 1 C7)  (* 1 C8)  (* 1 C9)  (* 1 C10) ) 1722 )  (<=  (+  (* 3 C1)  (* 2 C2)  (* 2 C3)  (* 1 C4)  (* 1 C5)  (* 1 C6)  (* 1 C7)  (* 1 C8)  (* 1 C9)  (* 1 C10) ) 1800 )  (<=  (+  (* 4 C1)  (* 2 C2)  (* 2 C3)  (* 1 C4)  (* 1 C5)  (* 1 C6)  (* 1 C7)  (* 1 C8)  (* 1 C9)  (* 1 C10) ) 1878 )  (<=  (+  (* 4 C1)  (* 2 C2)  (* 2 C3)  (* 2 C4)  (* 1 C5)  (* 1 C6)  (* 1 C7)  (* 1 C8)  (* 1 C9)  (* 1 C10) ) 1979 )  (<=  (+  (* 4 C1)  (* 2 C2)  (* 2 C3)  (* 2 C4)  (* 2 C5)  (* 1 C6)  (* 1 C7)  (* 1 C8)  (* 1 C9)  (* 1 C10) ) 2049 )  (<=  (+  (* 4 C1)  (* 2 C2)  (* 2 C3)  (* 2 C4)  (* 2 C5)  (* 2 C6)  (* 1 C7)  (* 1 C8)  (* 1 C9)  (* 1 C10) ) 2400 )  (<=  (+  (* 5 C1)  (* 2 C2)  (* 2 C3)  (* 2 C4)  (* 2 C5)  (* 2 C6)  (* 1 C7)  (* 1 C8)  (* 1 C9)  (* 1 C10) ) 2472 )  (<=  (+  (* 5 C1)  (* 2 C2)  (* 2 C3)  (* 2 C4)  (* 2 C5)  (* 2 C6)  (* 2 C7)  (* 1 C8)  (* 1 C9)  (* 1 C10) ) 2480 )  (<=  (+  (* 5 C1)  (* 2 C2)  (* 2 C3)  (* 2 C4)  (* 2 C5)  (* 2 C6)  (* 2 C7)  (* 2 C8)  (* 1 C9)  (* 1 C10) ) 2492 )  (<=  (+  (* 5 C1)  (* 3 C2)  (* 2 C3)  (* 2 C4)  (* 2 C5)  (* 2 C6)  (* 2 C7)  (* 2 C8)  (* 1 C9)  (* 1 C10) ) 3000 )  (<=  (+  (* 6 C1)  (* 3 C2)  (* 2 C3)  (* 2 C4)  (* 2 C5)  (* 2 C6)  (* 2 C7)  (* 2 C8)  (* 1 C9)  (* 1 C10) ) 3444 )  (<=  (+  (* 6 C1)  (* 3 C2)  (* 3 C3)  (* 2 C4)  (* 2 C5)  (* 2 C6)  (* 2 C7)  (* 2 C8)  (* 1 C9)  (* 1 C10) ) 3600 )  (<=  (+  (* 7 C1)  (* 3 C2)  (* 3 C3)  (* 2 C4)  (* 2 C5)  (* 2 C6)  (* 2 C7)  (* 2 C8)  (* 1 C9)  (* 1 C10) ) 3738 )  (<=  (+  (* 7 C1)  (* 4 C2)  (* 3 C3)  (* 2 C4)  (* 2 C5)  (* 2 C6)  (* 2 C7)  (* 2 C8)  (* 1 C9)  (* 1 C10) ) 3756 )  (<=  (+  (* 7 C1)  (* 4 C2)  (* 3 C3)  (* 3 C4)  (* 2 C5)  (* 2 C6)  (* 2 C7)  (* 2 C8)  (* 1 C9)  (* 1 C10) ) 3913 )  (<=  (+  (* 7 C1)  (* 4 C2)  (* 3 C3)  (* 3 C4)  (* 2 C5)  (* 2 C6)  (* 2 C7)  (* 2 C8)  (* 2 C9)  (* 1 C10) ) 3958 )  (<=  (+  (* 7 C1)  (* 4 C2)  (* 3 C3)  (* 3 C4)  (* 3 C5)  (* 2 C6)  (* 2 C7)  (* 2 C8)  (* 2 C9)  (* 1 C10) ) 4098 )  (<=  (+  (* 7 C1)  (* 4 C2)  (* 3 C3)  (* 3 C4)  (* 3 C5)  (* 3 C6)  (* 2 C7)  (* 2 C8)  (* 2 C9)  (* 1 C10) ) 4200 )  (<=  (+  (* 8 C1)  (* 4 C2)  (* 3 C3)  (* 3 C4)  (* 3 C5)  (* 3 C6)  (* 2 C7)  (* 2 C8)  (* 2 C9)  (* 1 C10) ) 4506 ) ) ( or  (<=  (+  (* 2 C1)  (* 1 C2)  (* 1 C3)  (* 1 C4)  (* 1 C5)  (* 1 C6)  (* 1 C7)  (* 1 C8)  (* 1 C9) ) 1200 )  (<=  (+  (* 3 C1)  (* 1 C2)  (* 1 C3)  (* 1 C4)  (* 1 C5)  (* 1 C6)  (* 1 C7)  (* 1 C8)  (* 1 C9) ) 1246 )  (<=  (+  (* 3 C1)  (* 2 C2)  (* 1 C3)  (* 1 C4)  (* 1 C5)  (* 1 C6)  (* 1 C7)  (* 1 C8)  (* 1 C9) ) 1722 )  (<=  (+  (* 3 C1)  (* 2 C2)  (* 2 C3)  (* 1 C4)  (* 1 C5)  (* 1 C6)  (* 1 C7)  (* 1 C8)  (* 1 C9) ) 1800 )  (<=  (+  (* 4 C1)  (* 2 C2)  (* 2 C3)  (* 1 C4)  (* 1 C5)  (* 1 C6)  (* 1 C7)  (* 1 C8)  (* 1 C9) ) 1878 )  (<=  (+  (* 4 C1)  (* 2 C2)  (* 2 C3)  (* 2 C4)  (* 1 C5)  (* 1 C6)  (* 1 C7)  (* 1 C8)  (* 1 C9) ) 1979 )  (<=  (+  (* 4 C1)  (* 2 C2)  (* 2 C3)  (* 2 C4)  (* 2 C5)  (* 1 C6)  (* 1 C7)  (* 1 C8)  (* 1 C9) ) 2049 )  (<=  (+  (* 4 C1)  (* 2 C2)  (* 2 C3)  (* 2 C4)  (* 2 C5)  (* 2 C6)  (* 1 C7)  (* 1 C8)  (* 1 C9) ) 2400 )  (<=  (+  (* 5 C1)  (* 2 C2)  (* 2 C3)  (* 2 C4)  (* 2 C5)  (* 2 C6)  (* 1 C7)  (* 1 C8)  (* 1 C9) ) 2472 )  (<=  (+  (* 5 C1)  (* 2 C2)  (* 2 C3)  (* 2 C4)  (* 2 C5)  (* 2 C6)  (* 2 C7)  (* 1 C8)  (* 1 C9) ) 2480 )  (<=  (+  (* 5 C1)  (* 2 C2)  (* 2 C3)  (* 2 C4)  (* 2 C5)  (* 2 C6)  (* 2 C7)  (* 2 C8)  (* 1 C9) ) 2492 )  (<=  (+  (* 5 C1)  (* 3 C2)  (* 2 C3)  (* 2 C4)  (* 2 C5)  (* 2 C6)  (* 2 C7)  (* 2 C8)  (* 1 C9) ) 3000 )  (<=  (+  (* 6 C1)  (* 3 C2)  (* 2 C3)  (* 2 C4)  (* 2 C5)  (* 2 C6)  (* 2 C7)  (* 2 C8)  (* 1 C9) ) 3444 )  (<=  (+  (* 6 C1)  (* 3 C2)  (* 3 C3)  (* 2 C4)  (* 2 C5)  (* 2 C6)  (* 2 C7)  (* 2 C8)  (* 1 C9) ) 3600 )  (<=  (+  (* 7 C1)  (* 3 C2)  (* 3 C3)  (* 2 C4)  (* 2 C5)  (* 2 C6)  (* 2 C7)  (* 2 C8)  (* 1 C9) ) 3738 )  (<=  (+  (* 7 C1)  (* 4 C2)  (* 3 C3)  (* 2 C4)  (* 2 C5)  (* 2 C6)  (* 2 C7)  (* 2 C8)  (* 1 C9) ) 3756 )  (<=  (+  (* 7 C1)  (* 4 C2)  (* 3 C3)  (* 3 C4)  (* 2 C5)  (* 2 C6)  (* 2 C7)  (* 2 C8)  (* 1 C9) ) 3913 ) ) ( or  (<=  (+  (* 2 C1)  (* 1 C2)  (* 1 C3)  (* 1 C4)  (* 1 C5)  (* 1 C6)  (* 1 C7)  (* 1 C8) ) 1200 )  (<=  (+  (* 3 C1)  (* 1 C2)  (* 1 C3)  (* 1 C4)  (* 1 C5)  (* 1 C6)  (* 1 C7)  (* 1 C8) ) 1246 )  (<=  (+  (* 3 C1)  (* 2 C2)  (* 1 C3)  (* 1 C4)  (* 1 C5)  (* 1 C6)  (* 1 C7)  (* 1 C8) ) 1722 )  (<=  (+  (* 3 C1)  (* 2 C2)  (* 2 C3)  (* 1 C4)  (* 1 C5)  (* 1 C6)  (* 1 C7)  (* 1 C8) ) 1800 )  (<=  (+  (* 4 C1)  (* 2 C2)  (* 2 C3)  (* 1 C4)  (* 1 C5)  (* 1 C6)  (* 1 C7)  (* 1 C8) ) 1878 )  (<=  (+  (* 4 C1)  (* 2 C2)  (* 2 C3)  (* 2 C4)  (* 1 C5)  (* 1 C6)  (* 1 C7)  (* 1 C8) ) 1979 )  (<=  (+  (* 4 C1)  (* 2 C2)  (* 2 C3)  (* 2 C4)  (* 2 C5)  (* 1 C6)  (* 1 C7)  (* 1 C8) ) 2049 )  (<=  (+  (* 4 C1)  (* 2 C2)  (* 2 C3)  (* 2 C4)  (* 2 C5)  (* 2 C6)  (* 1 C7)  (* 1 C8) ) 2400 )  (<=  (+  (* 5 C1)  (* 2 C2)  (* 2 C3)  (* 2 C4)  (* 2 C5)  (* 2 C6)  (* 1 C7)  (* 1 C8) ) 2472 )  (<=  (+  (* 5 C1)  (* 2 C2)  (* 2 C3)  (* 2 C4)  (* 2 C5)  (* 2 C6)  (* 2 C7)  (* 1 C8) ) 2480 ) ) ( or  (<=  (+  (* 2 C1)  (* 1 C2)  (* 1 C3)  (* 1 C4)  (* 1 C5)  (* 1 C6)  (* 1 C7) ) 1200 )  (<=  (+  (* 3 C1)  (* 1 C2)  (* 1 C3)  (* 1 C4)  (* 1 C5)  (* 1 C6)  (* 1 C7) ) 1246 )  (<=  (+  (* 3 C1)  (* 2 C2)  (* 1 C3)  (* 1 C4)  (* 1 C5)  (* 1 C6)  (* 1 C7) ) 1722 )  (<=  (+  (* 3 C1)  (* 2 C2)  (* 2 C3)  (* 1 C4)  (* 1 C5)  (* 1 C6)  (* 1 C7) ) 1800 )  (<=  (+  (* 4 C1)  (* 2 C2)  (* 2 C3)  (* 1 C4)  (* 1 C5)  (* 1 C6)  (* 1 C7) ) 1878 )  (<=  (+  (* 4 C1)  (* 2 C2)  (* 2 C3)  (* 2 C4)  (* 1 C5)  (* 1 C6)  (* 1 C7) ) 1979 )  (<=  (+  (* 4 C1)  (* 2 C2)  (* 2 C3)  (* 2 C4)  (* 2 C5)  (* 1 C6)  (* 1 C7) ) 2049 )  (<=  (+  (* 4 C1)  (* 2 C2)  (* 2 C3)  (* 2 C4)  (* 2 C5)  (* 2 C6)  (* 1 C7) ) 2400 )  (<=  (+  (* 5 C1)  (* 2 C2)  (* 2 C3)  (* 2 C4)  (* 2 C5)  (* 2 C6)  (* 1 C7) ) 2472 ) ) ( or  (<=  (+  (* 2 C1)  (* 1 C2)  (* 1 C3)  (* 1 C4)  (* 1 C5)  (* 1 C6) ) 1200 )  (<=  (+  (* 3 C1)  (* 1 C2)  (* 1 C3)  (* 1 C4)  (* 1 C5)  (* 1 C6) ) 1246 )  (<=  (+  (* 3 C1)  (* 2 C2)  (* 1 C3)  (* 1 C4)  (* 1 C5)  (* 1 C6) ) 1722 )  (<=  (+  (* 3 C1)  (* 2 C2)  (* 2 C3)  (* 1 C4)  (* 1 C5)  (* 1 C6) ) 1800 )  (<=  (+  (* 4 C1)  (* 2 C2)  (* 2 C3)  (* 1 C4)  (* 1 C5)  (* 1 C6) ) 1878 )  (<=  (+  (* 4 C1)  (* 2 C2)  (* 2 C3)  (* 2 C4)  (* 1 C5)  (* 1 C6) ) 1979 )  (<=  (+  (* 4 C1)  (* 2 C2)  (* 2 C3)  (* 2 C4)  (* 2 C5)  (* 1 C6) ) 2049 ) ) ( or  (<=  (+  (* 2 C1)  (* 1 C2)  (* 1 C3)  (* 1 C4)  (* 1 C5) ) 1200 )  (<=  (+  (* 3 C1)  (* 1 C2)  (* 1 C3)  (* 1 C4)  (* 1 C5) ) 1246 )  (<=  (+  (* 3 C1)  (* 2 C2)  (* 1 C3)  (* 1 C4)  (* 1 C5) ) 1722 )  (<=  (+  (* 3 C1)  (* 2 C2)  (* 2 C3)  (* 1 C4)  (* 1 C5) ) 1800 )  (<=  (+  (* 4 C1)  (* 2 C2)  (* 2 C3)  (* 1 C4)  (* 1 C5) ) 1878 )  (<=  (+  (* 4 C1)  (* 2 C2)  (* 2 C3)  (* 2 C4)  (* 1 C5) ) 1979 ) ) ( or  (<=  (+  (* 2 C1)  (* 1 C2)  (* 1 C3)  (* 1 C4) ) 1200 )  (<=  (+  (* 3 C1)  (* 1 C2)  (* 1 C3)  (* 1 C4) ) 1246 )  (<=  (+  (* 3 C1)  (* 2 C2)  (* 1 C3)  (* 1 C4) ) 1722 )  (<=  (+  (* 3 C1)  (* 2 C2)  (* 2 C3)  (* 1 C4) ) 1800 )  (<=  (+  (* 4 C1)  (* 2 C2)  (* 2 C3)  (* 1 C4) ) 1878 ) ) ( or  (<=  (+  (* 2 C1)  (* 1 C2)  (* 1 C3) ) 1200 )  (<=  (+  (* 3 C1)  (* 1 C2)  (* 1 C3) ) 1246 )  (<=  (+  (* 3 C1)  (* 2 C2)  (* 1 C3) ) 1722 ) ) ( or  (<=  (+  (* 2 C1)  (* 1 C2) ) 1200 )  (<=  (+  (* 3 C1)  (* 1 C2) ) 1246 ) ) ( or  (<=  (* 1 C1)  600 ) )  (and (>= C1 6) (>= C2 12) (>= C3 17) (>= C4 18) (>= C5 19) (>= C6 20) (>= C7 24) (>= C8 24) (>= C9 39) (>= C10 45) )  (and (<= C1 251) (<= C2 522) (<= C3 722) (<= C4 787) (<= C5 829) (<= C6 859) (<= C7 1036) (<= C8 1039) (<= C9 1640) (<= C10 1889) ) (= y (+ (/ C1 600) (/ C2 1246) (/ C3 1722) (/ C4 1878) (/ C5 1979) (/ C6 2049) (/ C7 2472) (/ C8 2480) (/ C9 3913) (/ C10 4506) )) ))
(maximize y)
(check-sat)
